p cnf 30 118
1 2 3 0
4 5 6 0
7 8 9 0
10 11 12 0
13 14 15 0
16 17 18 0
19 20 21 0
22 23 24 0
25 26 27 0
28 29 30 0
-1 -2 0
-1 -3 0
-2 -3 0
-4 -5 0
-4 -6 0
-5 -6 0
-7 -8 0
-7 -9 0
-8 -9 0
-10 -11 0
-10 -12 0
-11 -12 0
-13 -14 0
-13 -15 0
-14 -15 0
-16 -17 0
-16 -18 0
-17 -18 0
-19 -20 0
-19 -21 0
-20 -21 0
-22 -23 0
-22 -24 0
-23 -24 0
-25 -26 0
-25 -27 0
-26 -27 0
-28 -29 0
-28 -30 0
-29 -30 0
-1 -10 0
-1 -19 0
-1 -22 0
-4 -7 0
-4 -19 0
-4 -25 0
-7 -4 0
-7 -16 0
-7 -22 0
-10 -1 0
-10 -19 0
-10 -22 0
-13 -16 0
-13 -25 0
-16 -7 0
-16 -13 0
-16 -28 0
-19 -1 0
-19 -4 0
-19 -10 0
-22 -1 0
-22 -7 0
-22 -10 0
-25 -4 0
-25 -13 0
-28 -16 0
-2 -11 0
-2 -20 0
-2 -23 0
-5 -8 0
-5 -20 0
-5 -26 0
-8 -5 0
-8 -17 0
-8 -23 0
-11 -2 0
-11 -20 0
-11 -23 0
-14 -17 0
-14 -26 0
-17 -8 0
-17 -14 0
-17 -29 0
-20 -2 0
-20 -5 0
-20 -11 0
-23 -2 0
-23 -8 0
-23 -11 0
-26 -5 0
-26 -14 0
-29 -17 0
-3 -12 0
-3 -21 0
-3 -24 0
-6 -9 0
-6 -21 0
-6 -27 0
-9 -6 0
-9 -18 0
-9 -24 0
-12 -3 0
-12 -21 0
-12 -24 0
-15 -18 0
-15 -27 0
-18 -9 0
-18 -15 0
-18 -30 0
-21 -3 0
-21 -6 0
-21 -12 0
-24 -3 0
-24 -9 0
-24 -12 0
-27 -6 0
-27 -15 0
-30 -18 0
